s td 222 2 264
b 1 1
b 2 2
b 3 3
b 4 4 195
b 5 5
b 6 181 182
b 7 6 181
b 8 6 228
b 9 7
b 10 8 184
b 11 183 184
b 12 184
b 13 9
b 14 10
b 15 11 164
b 16 163 164
b 17 164
b 18 12 114
b 19 113 114
b 20 114
b 21 13 145
b 22 14 100
b 23 28 74
b 24 73 74
b 25 15 73
b 26 15 83
b 27 16 84
b 28 89 90
b 29 16 89
b 30 16 240
b 31 239 240
b 32 240
b 33 17 135
b 34 18
b 35 19 148
b 36 19 255
b 37 255 256
b 38 20 220
b 39 21 101
b 40 101 102
b 41 22
b 42 23 104
b 43 103 104
b 44 104
b 45 24 150
b 46 149 150
b 47 150
b 48 38 246
b 49 197 198
b 50 25 197
b 51 25 245
b 52 245 246
b 53 246
b 54 26 146
b 55 27
b 56 29 187
b 57 30 91
b 58 30 168
b 59 167 168
b 60 168
b 61 31 199
b 62 32
b 63 33
b 64 34
b 65 35
b 66 36 76
b 67 75 76
b 68 76
b 69 37 105
b 70 39 201
b 71 40 202
b 72 201 202
b 73 202
b 74 41 142
b 75 141 142
b 76 142
b 77 42
b 78 43
b 79 44 122
b 80 45 123
b 81 45 171
b 82 171 172
b 83 46 124
b 84 46 155
b 85 46 222
b 86 47 156
b 87 47 157
b 88 48
b 89 49
b 90 50
b 91 51
b 92 231 232
b 93 52 232
b 94 52 233
b 95 233 234
b 96 53 249
b 97 54
b 98 55 81
b 99 81 82
b 100 56 160
b 101 159 160
b 102 160
b 103 57 216
b 104 57 217
b 105 58 191
b 106 59 111
b 107 59 192
b 108 59 235
b 109 60 158
b 110 61 95
b 111 62 96
b 112 63
b 113 64 128
b 114 65 193
b 115 65 208
b 116 66 175
b 117 66 250
b 118 67
b 119 68
b 120 69
b 121 70 251
b 122 71
b 123 72
b 124 77 78
b 125 79
b 126 80
b 127 85 86
b 128 87 88
b 129 92
b 130 93 94
b 131 97
b 132 98
b 133 99
b 134 106
b 135 107 108
b 136 109
b 137 110
b 138 112
b 139 115
b 140 116
b 141 117 118
b 142 119
b 143 120
b 144 121
b 145 125
b 146 126
b 147 127
b 148 129
b 149 130
b 150 131
b 151 132
b 152 133
b 153 134
b 154 136
b 155 137
b 156 138
b 157 139
b 158 140
b 159 143
b 160 144
b 161 147
b 162 151 152
b 163 153 154
b 164 161
b 165 162
b 166 165
b 167 166
b 168 169
b 169 170
b 170 173 174
b 171 176
b 172 177
b 173 178
b 174 179 180
b 175 185 186
b 176 188
b 177 189
b 178 190
b 179 194
b 180 196
b 181 200
b 182 203
b 183 204
b 184 205
b 185 206
b 186 207
b 187 209
b 188 210
b 189 211
b 190 212
b 191 213
b 192 214
b 193 215
b 194 218
b 195 219
b 196 221
b 197 223
b 198 224
b 199 225
b 200 226
b 201 227
b 202 229
b 203 230
b 204 236
b 205 237
b 206 238
b 207 241 242
b 208 243
b 209 244
b 210 247
b 211 248
b 212 252
b 213 253
b 214 254
b 215 257
b 216 258
b 217 259
b 218 260
b 219 261
b 220 262
b 221 263
b 222 264
1 2
1 3
1 4
1 5
1 6
1 9
1 10
1 13
1 14
1 15
1 18
1 21
1 22
1 23
1 27
1 33
1 34
1 35
1 38
1 39
1 41
1 42
1 45
1 48
1 54
1 55
1 56
1 57
1 61
1 62
1 63
1 64
1 65
1 66
1 69
1 70
1 74
1 77
1 78
1 79
1 80
1 83
1 86
1 88
1 89
1 90
1 91
1 92
1 96
1 97
1 98
1 100
1 103
1 105
1 106
1 109
1 110
1 111
1 112
1 113
1 114
1 116
1 118
1 119
1 120
1 121
1 122
1 123
1 124
1 125
1 126
1 127
1 128
1 129
1 130
1 131
1 132
1 133
1 134
1 135
1 136
1 137
1 138
1 139
1 140
1 141
1 142
1 143
1 144
1 145
1 146
1 147
1 148
1 149
1 150
1 151
1 152
1 153
1 154
1 155
1 156
1 157
1 158
1 159
1 160
1 161
1 162
1 163
1 164
1 165
1 166
1 167
1 168
1 169
1 170
1 171
1 172
1 173
1 174
1 175
1 176
1 177
1 178
1 179
1 180
1 181
1 182
1 183
1 184
1 185
1 186
1 187
1 188
1 189
1 190
1 191
1 192
1 193
1 194
1 195
1 196
1 197
1 198
1 199
1 200
1 201
1 202
1 203
1 204
1 205
1 206
1 207
1 208
1 209
1 210
1 211
1 212
1 213
1 214
1 215
1 216
1 217
1 218
1 219
1 220
1 221
1 222
6 7
7 8
10 12
11 12
15 17
16 17
18 20
19 20
23 24
24 25
25 26
27 30
28 29
29 30
30 32
31 32
35 36
36 37
39 40
42 44
43 44
45 47
46 47
48 53
49 50
50 51
51 52
52 53
57 58
58 60
59 60
66 68
67 68
70 72
71 73
72 73
74 76
75 76
80 81
81 82
83 85
84 85
86 87
92 93
93 94
94 95
98 99
100 102
101 102
103 104
106 108
107 108
114 115
116 117
